NAME          AvellaRMP4.lp
ROWS
 N  obj     
 L  id6     
 L  id9     
 L  id12    
 L  id15    
 L  id18    
 L  id21    
 L  id24    
 L  id27    
 L  id30    
 L  id33    
 L  id36    
 L  id39    
 L  id42    
 L  id45    
 L  id48    
 L  id51    
 L  id54    
 L  id57    
 L  id60    
 L  id63    
 E  id67    
 E  id71    
 E  id75    
 E  id79    
 E  id83    
 E  id93    
 E  id102   
 E  id111   
 E  id120   
 E  id129   
 E  id138   
 E  id147   
 E  id156   
 E  id165   
 E  id174   
 E  id183   
 E  id187   
 E  id196   
 E  id205   
 E  id214   
 E  id223   
 E  id232   
 E  id241   
 E  id250   
 E  id259   
 E  id268   
 E  id277   
 E  id286   
 E  id295   
 E  id304   
COLUMNS
    y_76      obj                          -234
    y_76      id9                             1
    y_76      id54                            1
    y_76      id57                            1
    y_76      id63                            1
    y_76      id93                            1
    y_6       obj                          -231
    y_6       id27                            1
    y_6       id39                            1
    y_6       id54                            1
    y_6       id102                           1
    y_10      obj                          -231
    y_10      id24                            1
    y_10      id27                            1
    y_10      id39                            1
    y_10      id60                            1
    y_10      id111                           1
    y_81      obj                          -223
    y_81      id12                            1
    y_81      id21                            1
    y_81      id24                            1
    y_81      id30                            1
    y_81      id120                           1
    y_39      obj                          -210
    y_39      id15                            1
    y_39      id27                            1
    y_39      id45                            1
    y_39      id57                            1
    y_39      id129                           1
    y_36      obj                          -200
    y_36      id39                            1
    y_36      id42                            1
    y_36      id48                            1
    y_36      id51                            1
    y_36      id138                           1
    y_24      obj                          -227
    y_24      id6                             1
    y_24      id18                            1
    y_24      id48                            1
    y_24      id54                            1
    y_24      id147                           1
    y_91      obj                          -186
    y_91      id33                            1
    y_91      id45                            1
    y_91      id51                            1
    y_91      id156                           1
    y_3       obj                          -138
    y_3       id12                            1
    y_3       id18                            1
    y_3       id21                            1
    y_3       id165                           1
    y_23      obj                          -106
    y_23      id30                            1
    y_23      id33                            1
    y_23      id174                           1
    y_78      obj                          -101
    y_78      id6                             1
    y_78      id15                            1
    y_78      id36                            1
    y_78      id42                            1
    y_78      id183                           1
    y_43      obj                           -63
    y_43      id6                             1
    y_43      id187                           1
    y_63      obj                          -153
    y_63      id15                            1
    y_63      id27                            1
    y_63      id30                            1
    y_63      id48                            1
    y_63      id196                           1
    y_13      obj                          -142
    y_13      id9                             1
    y_13      id18                            1
    y_13      id45                            1
    y_13      id205                           1
    y_53      obj                          -203
    y_53      id6                             1
    y_53      id27                            1
    y_53      id30                            1
    y_53      id60                            1
    y_53      id214                           1
    y_33      obj                          -216
    y_33      id33                            1
    y_33      id45                            1
    y_33      id57                            1
    y_33      id223                           1
    y_21      obj                          -117
    y_21      id21                            1
    y_21      id33                            1
    y_21      id36                            1
    y_21      id232                           1
    y_28      obj                          -194
    y_28      id9                             1
    y_28      id12                            1
    y_28      id33                            1
    y_28      id241                           1
    y_68      obj                           -80
    y_68      id42                            1
    y_68      id60                            1
    y_68      id63                            1
    y_68      id250                           1
    y_72      obj                          -182
    y_72      id12                            1
    y_72      id24                            1
    y_72      id51                            1
    y_72      id259                           1
    y_58      obj                          -237
    y_58      id6                             1
    y_58      id33                            1
    y_58      id54                            1
    y_58      id63                            1
    y_58      id268                           1
    y_44      obj                          -152
    y_44      id12                            1
    y_44      id36                            1
    y_44      id51                            1
    y_44      id63                            1
    y_44      id277                           1
    y_31      obj                          -184
    y_31      id9                             1
    y_31      id24                            1
    y_31      id45                            1
    y_31      id286                           1
    y_22      obj                          -117
    y_22      id9                             1
    y_22      id24                            1
    y_22      id36                            1
    y_22      id295                           1
    y_90      obj                          -290
    y_90      id27                            1
    y_90      id33                            1
    y_90      id54                            1
    y_90      id57                            1
    y_90      id304                           1
    x_6_1     id67                            1
    x_6_1     id102                          -1
    x_10_1    id67                            1
    x_10_1    id111                          -1
    x_39_1    id67                            1
    x_39_1    id129                          -1
    x_91_1    id67                            1
    x_91_1    id156                          -1
    x_3_1     id67                            1
    x_3_1     id165                          -1
    x_23_1    id67                            1
    x_23_1    id174                          -1
    x_13_1    id67                            1
    x_13_1    id205                          -1
    x_53_1    id67                            1
    x_53_1    id214                          -1
    x_28_1    id67                            1
    x_28_1    id241                          -1
    x_31_1    id67                            1
    x_31_1    id286                          -1
    x_76_2    id71                            1
    x_76_2    id93                           -1
    x_81_2    id71                            1
    x_81_2    id120                          -1
    x_39_2    id71                            1
    x_39_2    id129                          -1
    x_36_2    id71                            1
    x_36_2    id138                          -1
    x_24_2    id71                            1
    x_24_2    id147                          -1
    x_91_2    id71                            1
    x_91_2    id156                          -1
    x_78_2    id71                            1
    x_78_2    id183                          -1
    x_21_2    id71                            1
    x_21_2    id232                          -1
    x_58_2    id71                            1
    x_58_2    id268                          -1
    x_44_2    id71                            1
    x_44_2    id277                          -1
    x_81_3    id75                            1
    x_81_3    id120                          -1
    x_24_3    id75                            1
    x_24_3    id147                          -1
    x_78_3    id75                            1
    x_78_3    id183                          -1
    x_72_3    id75                            1
    x_72_3    id259                          -1
    x_44_3    id75                            1
    x_44_3    id277                          -1
    x_22_3    id75                            1
    x_22_3    id295                          -1
    x_10_4    id79                            1
    x_10_4    id111                          -1
    x_3_4     id79                            1
    x_3_4     id165                          -1
    x_23_4    id79                            1
    x_23_4    id174                          -1
    x_43_4    id79                            1
    x_43_4    id187                          -1
    x_13_4    id79                            1
    x_13_4    id205                          -1
    x_68_4    id79                            1
    x_68_4    id250                          -1
    x_22_4    id79                            1
    x_22_4    id295                          -1
    x_76_5    id83                            1
    x_76_5    id93                           -1
    x_6_5     id83                            1
    x_6_5     id102                          -1
    x_36_5    id83                            1
    x_36_5    id138                          -1
    x_43_5    id83                            1
    x_43_5    id187                          -1
    x_63_5    id83                            1
    x_63_5    id196                          -1
    x_33_5    id83                            1
    x_33_5    id223                          -1
    x_31_5    id83                            1
    x_31_5    id286                          -1
    x_90_5    id83                            1
    x_90_5    id304                          -1
RHS
    rhs       id6                             1
    rhs       id9                             1
    rhs       id12                            1
    rhs       id15                            1
    rhs       id18                            1
    rhs       id21                            1
    rhs       id24                            1
    rhs       id27                            1
    rhs       id30                            1
    rhs       id33                            1
    rhs       id36                            1
    rhs       id39                            1
    rhs       id42                            1
    rhs       id45                            1
    rhs       id48                            1
    rhs       id51                            1
    rhs       id54                            1
    rhs       id57                            1
    rhs       id60                            1
    rhs       id63                            1
    rhs       id67                            1
    rhs       id71                            1
    rhs       id75                            1
    rhs       id79                            1
    rhs       id83                            1
BOUNDS
 UP bnd       y_76                            1
 UP bnd       y_6                             1
 UP bnd       y_10                            1
 UP bnd       y_81                            1
 UP bnd       y_39                            1
 UP bnd       y_36                            1
 UP bnd       y_24                            1
 UP bnd       y_91                            1
 UP bnd       y_3                             1
 UP bnd       y_23                            1
 UP bnd       y_78                            1
 UP bnd       y_43                            1
 UP bnd       y_63                            1
 UP bnd       y_13                            1
 UP bnd       y_53                            1
 UP bnd       y_33                            1
 UP bnd       y_21                            1
 UP bnd       y_28                            1
 UP bnd       y_68                            1
 UP bnd       y_72                            1
 UP bnd       y_58                            1
 UP bnd       y_44                            1
 UP bnd       y_31                            1
 UP bnd       y_22                            1
 UP bnd       y_90                            1
 UP bnd       x_6_1                           1
 UP bnd       x_10_1                          1
 UP bnd       x_39_1                          1
 UP bnd       x_91_1                          1
 UP bnd       x_3_1                           1
 UP bnd       x_23_1                          1
 UP bnd       x_13_1                          1
 UP bnd       x_53_1                          1
 UP bnd       x_28_1                          1
 UP bnd       x_31_1                          1
 UP bnd       x_76_2                          1
 UP bnd       x_81_2                          1
 UP bnd       x_39_2                          1
 UP bnd       x_36_2                          1
 UP bnd       x_24_2                          1
 UP bnd       x_91_2                          1
 UP bnd       x_78_2                          1
 UP bnd       x_21_2                          1
 UP bnd       x_58_2                          1
 UP bnd       x_44_2                          1
 UP bnd       x_81_3                          1
 UP bnd       x_24_3                          1
 UP bnd       x_78_3                          1
 UP bnd       x_72_3                          1
 UP bnd       x_44_3                          1
 UP bnd       x_22_3                          1
 UP bnd       x_10_4                          1
 UP bnd       x_3_4                           1
 UP bnd       x_23_4                          1
 UP bnd       x_43_4                          1
 UP bnd       x_13_4                          1
 UP bnd       x_68_4                          1
 UP bnd       x_22_4                          1
 UP bnd       x_76_5                          1
 UP bnd       x_6_5                           1
 UP bnd       x_36_5                          1
 UP bnd       x_43_5                          1
 UP bnd       x_63_5                          1
 UP bnd       x_33_5                          1
 UP bnd       x_31_5                          1
 UP bnd       x_90_5                          1
ENDATA
